NAME : Synth-n9-k2-s2
COMMENT : Synthetic small hard CVRP instance for quantum simulation
TYPE : CVRP
DIMENSION : 9
EDGE_WEIGHT_TYPE : EUC_2D
CAPACITY : 20
NODE_COORD_SECTION
1 50.000000 50.000000
2 59.939500 64.257798
3 58.786111 77.321586
4 20.464745 65.833947
5 31.646373 51.583563
6 34.243578 27.502542
7 44.596510 16.931805
8 65.121711 39.028797
9 76.528001 46.067228
DEMAND_SECTION
1 0
2 6
3 7
4 4
5 3
6 2
7 4
8 3
9 4
DEPOT_SECTION
1
-1
EOF
